Function: get_partitions took 2.3126602172851562e-05 seconds
Function: map_flows_partitions took 3.814697265625e-06 seconds
Building model with:
3 devices, 3 partitions and 1 flows
Using license file /home/anup/gurobi.lic
Academic license - for non-commercial use only
Function: MIP.add_frac_mem_var took 0.0002543926239013672 seconds
Function: MIP.add_coverage_constraints took 0.0002589225769042969 seconds
Function: MIP.add_accuracy_constraints took 0.00023031234741210938 seconds
Function: MIP.add_capacity_constraints took 0.0003688335418701172 seconds
Changed value of parameter TimeLimit to 120.0
   Prev: inf  Min: 0.0  Max: inf  Default: inf
Changed value of parameter NonConvex to 2
   Prev: -1  Min: -1  Max: 2  Default: -1
Parameter NonConvex unchanged
   Value: 2  Min: -1  Max: 2  Default: -1
--------------------------------------------------
Starting model update
Model update took: 3.4809112548828125e-05 s
--------------------------------------------------
Starting model optimize
Gurobi Optimizer version 9.0.0 build v9.0.0rc2 (linux64)
Optimize a model with 28 rows, 47 columns and 79 nonzeros
Model fingerprint: 0xf3d7ada6
Model has 6 quadratic constraints
Model has 5 general constraints
Variable types: 43 continuous, 4 integer (0 binary)
Coefficient statistics:
  Matrix range     [1e-04, 1e+04]
  QMatrix range    [1e+00, 1e+00]
  QLMatrix range   [1e+00, 1e+00]
  Objective range  [1e+00, 1e+00]
  Bounds range     [1e+00, 3e+04]
  RHS range        [1e+00, 2e+01]

---------------------------------------------------------------------------
Multi-objectives: starting optimization with 2 objectives ... 
---------------------------------------------------------------------------

Multi-objectives: applying initial presolve ...
---------------------------------------------------------------------------

Presolve added 0 rows and 9 columns
Presolve removed 1 rows and 0 columns
Presolve time: 0.00s
Presolved: 51 rows and 57 columns
---------------------------------------------------------------------------

Multi-objectives: optimize objective 1 (ns) ...
---------------------------------------------------------------------------

Presolve added 0 rows and 4 columns
Presolve removed 1 rows and 0 columns
Presolve time: 0.00s
Presolved: 74 rows, 62 columns, 214 nonzeros
Presolved model has 6 SOS constraint(s)
Presolved model has 6 bilinear constraint(s)
Variable types: 42 continuous, 20 integer (16 binary)

Root relaxation: objective 1.020408e+01, 29 iterations, 0.00 seconds

    Nodes    |    Current Node    |     Objective Bounds      |     Work
 Expl Unexpl |  Obj  Depth IntInf | Incumbent    BestBd   Gap | It/Node Time

     0     0   10.20408    0    6          -   10.20408      -     -    0s
     0     0   10.20408    0    4          -   10.20408      -     -    0s
     0     0   10.20408    0    3          -   10.20408      -     -    0s
     0     0   10.20408    0    3          -   10.20408      -     -    0s
H    0     0                      12.5000000   10.20408  18.4%     -    0s
     0     2   10.26655    0   12   12.50000   10.26655  17.9%     -    0s
*   98    38              14      11.4285714   10.71429  6.25%   3.8    0s

Cutting planes:
  Gomory: 1
  Implied bound: 6
  Flow cover: 3
  RLT: 6
  Relax-and-lift: 3

Explored 148 nodes (482 simplex iterations) in 0.03 seconds
Thread count was 8 (of 8 available processors)

Solution count 2: 11.4286 12.5 

Optimal solution found (tolerance 1.00e-04)
Best objective 1.142857142857e+01, best bound 1.142857142857e+01, gap 0.0000%
---------------------------------------------------------------------------

Multi-objectives: optimize objective 2 (res) ...
---------------------------------------------------------------------------


Loaded user MIP start with objective 155.021

Presolve added 0 rows and 2 columns
Presolve removed 2 rows and 0 columns
Presolve time: 0.00s
Presolved: 74 rows, 59 columns, 230 nonzeros
Presolved model has 6 bilinear constraint(s)
Variable types: 42 continuous, 17 integer (13 binary)

Root relaxation: objective 1.122038e+02, 43 iterations, 0.00 seconds

    Nodes    |    Current Node    |     Objective Bounds      |     Work
 Expl Unexpl |  Obj  Depth IntInf | Incumbent    BestBd   Gap | It/Node Time

     0     0  112.20378    0    8  155.02055  112.20378  27.6%     -    0s
H    0     0                     145.5679799  112.20378  22.9%     -    0s
     0     0  116.38924    0   11  145.56798  116.38924  20.0%     -    0s
     0     0  116.38924    0   11  145.56798  116.38924  20.0%     -    0s
     0     0  117.04274    0   11  145.56798  117.04274  19.6%     -    0s
     0     0  117.12040    0   11  145.56798  117.12040  19.5%     -    0s
     0     0  118.19905    0   11  145.56798  118.19905  18.8%     -    0s
     0     0  118.98769    0    8  145.56798  118.98769  18.3%     -    0s
     0     0  122.53920    0    7  145.56798  122.53920  15.8%     -    0s
     0     0  122.57784    0    6  145.56798  122.57784  15.8%     -    0s
     0     0  122.60212    0    8  145.56798  122.60212  15.8%     -    0s
     0     0  122.62873    0    6  145.56798  122.62873  15.8%     -    0s
     0     0  122.62873    0    6  145.56798  122.62873  15.8%     -    0s
     0     0  122.62873    0    6  145.56798  122.62873  15.8%     -    0s
     0     2  122.62873    0    6  145.56798  122.62873  15.8%     -    0s
*   51    31              10     142.8331843  132.59678  7.17%   2.5    0s
*   59    37              10     135.5737040  132.59678  2.20%   2.6    0s
*   69    37              11     132.8489774  132.59678  0.19%   2.5    0s
H   79    37                     132.8424129  132.80727  0.03%   2.2    0s
*   98    21              15     132.8423468  132.84234  0.00%   2.1    0s

Cutting planes:
  Implied bound: 3
  Flow cover: 2
  RLT: 5
  Relax-and-lift: 4

Explored 107 nodes (344 simplex iterations) in 0.08 seconds
Thread count was 8 (of 8 available processors)

Solution count 7: 132.842 132.842 132.849 ... 155.021

Optimal solution found (tolerance 1.00e-04)
Best objective 1.328423467692e+02, best bound 1.328423467692e+02, gap 0.0000%

---------------------------------------------------------------------------
Multi-objectives: solved in 0.08 seconds, solution count 8

Model optimize took: 0.07757258415222168 seconds
--------------------------------------------------

Solution quality statistics for model Netmon :
  Maximum violation:
    Bound       : 0.00000000e+00
    Constraint  : 3.79171434e-07
    Integrality : 7.21644966e-13 (cores_sketch_CPU_2)

Throughput: 87.49124322019418 Mpps, ns per packet: 11.429715285714288
Resources: 132.84234676919624
Used Cores: 12.999999999999412, Total CPUS: 2, Switch Memory: 0.8664743619966236

Sketch (0) (cm: eps0: 0.03125, del0: 0.05, min_mem: 0.33984375)
Par: 1, Rows: 3
(0.000,0)    (0.227,2)    (0.773,1)    
Total frac: 1.000

Sketch (1) (cm: eps0: 3.125e-06, del0: 0.05, min_mem: 3397.85546875)
Par: 1, Rows: 3
(0.420,0)    (0.580,2)    (0.000,1)    
Total frac: 1.000

Sketch (2) (cm: eps0: 0.625, del0: 0.025, min_mem: 0.01953125)
Par: 1, Rows: 4
(1.000,1)    (0.000,0)    (0.000,2)    
Total frac: 1.000

Device (0) CPU_1:
cores_sketch: 1.000000000000133, cores_dpdk: 5.0
Rows total: 1.2609117278183384
Mem total: 4284.395809978553
Throughput: 87.49124322019418

Device (1) P4_1:
Rows total: 6.3197406513923635
Mem total: 0.8664743619966236
Throughput: 148.0

Device (2) CPU_2:
cores_sketch: 1.9999999999992784, cores_dpdk: 5.0
Rows total: 2.4193476207892974
Mem total: 5909.40177815945
Throughput: 87.49124322019418
--------------------------------------------------
Function: MIP.solve took 0.08573627471923828 seconds
Function: solve took 0.08605551719665527 seconds
